objective value:                                 3160
x1793                                               1 	(obj:84)
x1981                                               1 	(obj:1162)
x7549                                               1 	(obj:1914)
